<instance format="XCSP3" type="COP">
  <variables>
    <array id="mrun" size="[90]"> 0 1 </array>
    <array id="start" size="[30]"> 0..215 </array>
    <array id="adur" size="[30]">
      <domain for="adur[0]"> 1 5 9 </domain>
      <domain for="adur[1]"> 3 4 8 </domain>
      <domain for="adur[2]"> 3 8 </domain>
      <domain for="adur[3]"> 1 6 9 </domain>
      <domain for="adur[4]"> 4 7 8 </domain>
      <domain for="adur[5]"> 2 3 6 </domain>
      <domain for="adur[6]"> 5 6 7 </domain>
      <domain for="adur[7]"> 1 5 6 </domain>
      <domain for="adur[8]"> 1 2 7 </domain>
      <domain for="adur[9]"> 1 3 6 </domain>
      <domain for="adur[10]"> 1 6 10 </domain>
      <domain for="adur[11]"> 1 5 10 </domain>
      <domain for="adur[12]"> 5 8 10 </domain>
      <domain for="adur[13]"> 3 4 5 </domain>
      <domain for="adur[14]"> 2 4 6 </domain>
      <domain for="adur[15]"> 4 5 6 </domain>
      <domain for="adur[16]"> 5 6 9 </domain>
      <domain for="adur[17]"> 2 7 8 </domain>
      <domain for="adur[18]"> 1 4 10 </domain>
      <domain for="adur[19]"> 2 6 10 </domain>
      <domain for="adur[20] adur[28]"> 1 2 5 </domain>
      <domain for="adur[21]"> 2 5 6 </domain>
      <domain for="adur[22]"> 2 3 5 </domain>
      <domain for="adur[23]"> 6 8 </domain>
      <domain for="adur[24]"> 4 6 </domain>
      <domain for="adur[25]"> 1 7 8 </domain>
      <domain for="adur[26]"> 1 </domain>
      <domain for="adur[27]"> 2 4 8 </domain>
      <domain for="adur[29]"> 2 4 5 </domain>
    </array>
    <array id="arreq" size="[4][30]">
      <domain for="arreq[0][0]"> 5 8 9 </domain>
      <domain for="arreq[0][1]"> 5 8 10 </domain>
      <domain for="arreq[0][2]"> 4 5 9 </domain>
      <domain for="arreq[0][3] arreq[0][14]"> 3 </domain>
      <domain for="arreq[0][4] arreq[0][8]"> 4 5 6 </domain>
      <domain for="arreq[0][5] arreq[0][17]"> 3 5 </domain>
      <domain for="arreq[0][6] arreq[0][25]"> 2 4 6 </domain>
      <domain for="arreq[0][7]"> 1 5 7 </domain>
      <domain for="arreq[0][9]"> 3 5 7 </domain>
      <domain for="arreq[0][10] arreq[1][0]"> 9 10 </domain>
      <domain for="arreq[0][11]"> 4 5 8 </domain>
      <domain for="arreq[0][12] arreq[1][14]"> 6 7 9 </domain>
      <domain for="arreq[0][13] arreq[0][19]"> 5 7 9 </domain>
      <domain for="arreq[0][15] arreq[1][15]"> 3 4 5 </domain>
      <domain for="arreq[0][16]"> 6 7 8 </domain>
      <domain for="arreq[0][18]"> 1 2 4 </domain>
      <domain for="arreq[0][20] arreq[0][21]"> 6 </domain>
      <domain for="arreq[0][22]"> 1 3 5 </domain>
      <domain for="arreq[0][23] arreq[1][18]"> 8 9 </domain>
      <domain for="arreq[0][24]"> 2 8 </domain>
      <domain for="arreq[0][26]"> 4 6 8 </domain>
      <domain for="arreq[0][27] arreq[1][1] arreq[1][6]"> 3 4 </domain>
      <domain for="arreq[0][28]"> 2 4 5 </domain>
      <domain for="arreq[0][29]"> 6 8 </domain>
      <domain for="arreq[1][2]"> 3 4 9 </domain>
      <domain for="arreq[1][3] arreq[1][16]"> 5 6 </domain>
      <domain for="arreq[1][4]"> 1 3 6 </domain>
      <domain for="arreq[1][5]"> 4 7 </domain>
      <domain for="arreq[1][7] arreq[1][9] arreq[1][12]"> 7 8 </domain>
      <domain for="arreq[1][8] arreq[1][11]"> 3 5 6 </domain>
      <domain for="arreq[1][10] arreq[1][26]"> 5 7 </domain>
      <domain for="arreq[1][13]"> 2 3 5 </domain>
      <domain for="arreq[1][17]"> 4 6 7 </domain>
      <domain for="arreq[1][19] arreq[3][4]"> 6 7 </domain>
      <domain for="arreq[1][20]"> 4 </domain>
      <domain for="arreq[1][21]"> 2 3 </domain>
      <domain for="arreq[1][22]"> 4 5 </domain>
      <domain for="arreq[1][23]"> 3 4 6 </domain>
      <domain for="arreq[1][24]"> 1 2 </domain>
      <domain for="arreq[1][25]"> 6 8 9 </domain>
      <domain for="arreq[1][27]"> 5 6 7 </domain>
      <domain for="arreq[1][28]"> 3 5 8 </domain>
      <domain for="arreq[1][29]"> 4 5 7 </domain>
      <domain for="arreq[2][0..1] arreq[3][8] arreq[3][13] arreq[3][15]"> 0 6 </domain>
      <domain for="arreq[2][2]"> 0 3 4 </domain>
      <domain for="arreq[2][3] arreq[3][25]"> 0 3 6 </domain>
      <domain for="arreq[2][4] arreq[3][14] arreq[3][16] arreq[3][22]"> 0 </domain>
      <domain for="arreq[2][5] arreq[2][12] arreq[3][21]"> 0 9 </domain>
      <domain for="arreq[2][6]"> 0 2 3 </domain>
      <domain for="arreq[2][7] arreq[2][9] arreq[2][15] arreq[2][25] arreq[2][29] arreq[3][23..24]"> 0 4 </domain>
      <domain for="arreq[2][8] arreq[2][20] arreq[2][24] arreq[3][3] arreq[3][6..7] arreq[3][19]"> 0 5 </domain>
      <domain for="arreq[2][10]"> 0 10 </domain>
      <domain for="arreq[2][11] arreq[3][20]"> 0 3 9 </domain>
      <domain for="arreq[2][13]"> 0 2 4 </domain>
      <domain for="arreq[2][14]"> 1 </domain>
      <domain for="arreq[2][16]"> 6 9 </domain>
      <domain for="arreq[2][17] arreq[3][2] arreq[3][17] arreq[3][27]"> 0 7 </domain>
      <domain for="arreq[2][18] arreq[3][1] arreq[3][10] arreq[3][26]"> 0 8 </domain>
      <domain for="arreq[2][19] arreq[3][28]"> 0 5 6 </domain>
      <domain for="arreq[2][21] arreq[2][26]"> 0 2 </domain>
      <domain for="arreq[2][22]"> 4 6 </domain>
      <domain for="arreq[2][23]"> 0 2 7 </domain>
      <domain for="arreq[2][27]"> 0 3 5 </domain>
      <domain for="arreq[2][28] arreq[3][11]"> 0 3 </domain>
      <domain for="arreq[3][0] arreq[3][29]"> 0 9 10 </domain>
      <domain for="arreq[3][5]"> 0 6 7 </domain>
      <domain for="arreq[3][9]"> 0 2 6 </domain>
      <domain for="arreq[3][12]"> 0 7 8 </domain>
      <domain for="arreq[3][18]"> 0 1 2 </domain>
    </array>
    <array id="xmode" size="[30]">
      <domain for="xmode[0]"> 0 1 2 </domain>
      <domain for="xmode[1]"> 3 4 5 </domain>
      <domain for="xmode[2]"> 6 7 8 </domain>
      <domain for="xmode[3]"> 9 10 11 </domain>
      <domain for="xmode[4]"> 12 13 14 </domain>
      <domain for="xmode[5]"> 15 16 17 </domain>
      <domain for="xmode[6]"> 18 19 20 </domain>
      <domain for="xmode[7]"> 21 22 23 </domain>
      <domain for="xmode[8]"> 24 25 26 </domain>
      <domain for="xmode[9]"> 27 28 29 </domain>
      <domain for="xmode[10]"> 30 31 32 </domain>
      <domain for="xmode[11]"> 33 34 35 </domain>
      <domain for="xmode[12]"> 36 37 38 </domain>
      <domain for="xmode[13]"> 39 40 41 </domain>
      <domain for="xmode[14]"> 42 43 44 </domain>
      <domain for="xmode[15]"> 45 46 47 </domain>
      <domain for="xmode[16]"> 48 49 50 </domain>
      <domain for="xmode[17]"> 51 52 53 </domain>
      <domain for="xmode[18]"> 54 55 56 </domain>
      <domain for="xmode[19]"> 57 58 59 </domain>
      <domain for="xmode[20]"> 60 61 62 </domain>
      <domain for="xmode[21]"> 63 64 65 </domain>
      <domain for="xmode[22]"> 66 67 68 </domain>
      <domain for="xmode[23]"> 69 70 71 </domain>
      <domain for="xmode[24]"> 72 73 74 </domain>
      <domain for="xmode[25]"> 75 76 77 </domain>
      <domain for="xmode[26]"> 78 79 80 </domain>
      <domain for="xmode[27]"> 81 82 83 </domain>
      <domain for="xmode[28]"> 84 85 86 </domain>
      <domain for="xmode[29]"> 87 88 89 </domain>
    </array>
  </variables>
  <constraints>
    <group>
      <element>
        <list> mrun[] </list>
        <index> %0 </index>
        <value> 1 </value>
      </element>
      <args> xmode[0] </args>
      <args> xmode[1] </args>
      <args> xmode[2] </args>
      <args> xmode[3] </args>
      <args> xmode[4] </args>
      <args> xmode[5] </args>
      <args> xmode[6] </args>
      <args> xmode[7] </args>
      <args> xmode[8] </args>
      <args> xmode[9] </args>
      <args> xmode[10] </args>
      <args> xmode[11] </args>
      <args> xmode[12] </args>
      <args> xmode[13] </args>
      <args> xmode[14] </args>
      <args> xmode[15] </args>
      <args> xmode[16] </args>
      <args> xmode[17] </args>
      <args> xmode[18] </args>
      <args> xmode[19] </args>
      <args> xmode[20] </args>
      <args> xmode[21] </args>
      <args> xmode[22] </args>
      <args> xmode[23] </args>
      <args> xmode[24] </args>
      <args> xmode[25] </args>
      <args> xmode[26] </args>
      <args> xmode[27] </args>
      <args> xmode[28] </args>
      <args> xmode[29] </args>
    </group>
    <group>
      <sum>
        <list> %0 %1 %2 </list>
        <condition> (eq,1) </condition>
      </sum>
      <args> mrun[0..2] </args>
      <args> mrun[3..5] </args>
      <args> mrun[6..8] </args>
      <args> mrun[9..11] </args>
      <args> mrun[12..14] </args>
      <args> mrun[15..17] </args>
      <args> mrun[18..20] </args>
      <args> mrun[21..23] </args>
      <args> mrun[24..26] </args>
      <args> mrun[27..29] </args>
      <args> mrun[30..32] </args>
      <args> mrun[33..35] </args>
      <args> mrun[36..38] </args>
      <args> mrun[39..41] </args>
      <args> mrun[42..44] </args>
      <args> mrun[45..47] </args>
      <args> mrun[48..50] </args>
      <args> mrun[51..53] </args>
      <args> mrun[54..56] </args>
      <args> mrun[57..59] </args>
      <args> mrun[60..62] </args>
      <args> mrun[63..65] </args>
      <args> mrun[66..68] </args>
      <args> mrun[69..71] </args>
      <args> mrun[72..74] </args>
      <args> mrun[75..77] </args>
      <args> mrun[78..80] </args>
      <args> mrun[81..83] </args>
      <args> mrun[84..86] </args>
      <args> mrun[87..89] </args>
    </group>
    <group>
      <element>
        <list> 1 5 9 3 4 8 3 8 8 1 6 9 4 7 8 2 3 6 5 6 7 1 5 6 1 2 7 1 3 6 1 6 10 1 5 10 5 8 10 3 4 5 2 4 6 4 5 6 5 6 9 2 7 8 1 4 10 2 6 10 1 2 5 2 5 6 2 3 5 6 8 8 4 4 6 1 7 8 1 1 1 2 4 8 1 2 5 2 4 5 </list>
        <index> %0 </index>
        <value> %1 </value>
      </element>
      <args> xmode[0] adur[0] </args>
      <args> xmode[1] adur[1] </args>
      <args> xmode[2] adur[2] </args>
      <args> xmode[3] adur[3] </args>
      <args> xmode[4] adur[4] </args>
      <args> xmode[5] adur[5] </args>
      <args> xmode[6] adur[6] </args>
      <args> xmode[7] adur[7] </args>
      <args> xmode[8] adur[8] </args>
      <args> xmode[9] adur[9] </args>
      <args> xmode[10] adur[10] </args>
      <args> xmode[11] adur[11] </args>
      <args> xmode[12] adur[12] </args>
      <args> xmode[13] adur[13] </args>
      <args> xmode[14] adur[14] </args>
      <args> xmode[15] adur[15] </args>
      <args> xmode[16] adur[16] </args>
      <args> xmode[17] adur[17] </args>
      <args> xmode[18] adur[18] </args>
      <args> xmode[19] adur[19] </args>
      <args> xmode[20] adur[20] </args>
      <args> xmode[21] adur[21] </args>
      <args> xmode[22] adur[22] </args>
      <args> xmode[23] adur[23] </args>
      <args> xmode[24] adur[24] </args>
      <args> xmode[25] adur[25] </args>
      <args> xmode[26] adur[26] </args>
      <args> xmode[27] adur[27] </args>
      <args> xmode[28] adur[28] </args>
      <args> xmode[29] adur[29] </args>
    </group>
    <group>
      <element>
        <list> 9 8 5 10 8 5 9 5 4 3 3 3 6 5 4 5 5 3 6 4 2 7 5 1 6 5 4 7 5 3 10 9 9 8 5 4 9 7 6 9 7 5 3 3 3 5 4 3 8 7 6 5 5 3 4 2 1 9 7 5 6 6 6 6 6 6 5 3 1 9 9 8 8 8 2 6 4 2 6 4 8 4 3 3 5 4 2 8 6 6 </list>
        <index> %0 </index>
        <value> %1 </value>
      </element>
      <args> xmode[0] arreq[0][0] </args>
      <args> xmode[1] arreq[0][1] </args>
      <args> xmode[2] arreq[0][2] </args>
      <args> xmode[3] arreq[0][3] </args>
      <args> xmode[4] arreq[0][4] </args>
      <args> xmode[5] arreq[0][5] </args>
      <args> xmode[6] arreq[0][6] </args>
      <args> xmode[7] arreq[0][7] </args>
      <args> xmode[8] arreq[0][8] </args>
      <args> xmode[9] arreq[0][9] </args>
      <args> xmode[10] arreq[0][10] </args>
      <args> xmode[11] arreq[0][11] </args>
      <args> xmode[12] arreq[0][12] </args>
      <args> xmode[13] arreq[0][13] </args>
      <args> xmode[14] arreq[0][14] </args>
      <args> xmode[15] arreq[0][15] </args>
      <args> xmode[16] arreq[0][16] </args>
      <args> xmode[17] arreq[0][17] </args>
      <args> xmode[18] arreq[0][18] </args>
      <args> xmode[19] arreq[0][19] </args>
      <args> xmode[20] arreq[0][20] </args>
      <args> xmode[21] arreq[0][21] </args>
      <args> xmode[22] arreq[0][22] </args>
      <args> xmode[23] arreq[0][23] </args>
      <args> xmode[24] arreq[0][24] </args>
      <args> xmode[25] arreq[0][25] </args>
      <args> xmode[26] arreq[0][26] </args>
      <args> xmode[27] arreq[0][27] </args>
      <args> xmode[28] arreq[0][28] </args>
      <args> xmode[29] arreq[0][29] </args>
    </group>
    <group>
      <element>
        <list> 10 10 9 4 4 3 9 4 3 6 5 5 6 3 1 7 7 4 4 4 3 8 7 7 6 5 3 8 8 7 7 5 5 6 5 3 8 8 7 5 3 2 9 7 6 5 4 3 6 5 5 7 6 4 9 8 8 7 7 6 4 4 4 3 3 2 5 5 4 6 3 4 2 2 1 9 8 6 5 7 5 7 6 5 8 5 3 7 5 4 </list>
        <index> %0 </index>
        <value> %1 </value>
      </element>
      <args> xmode[0] arreq[1][0] </args>
      <args> xmode[1] arreq[1][1] </args>
      <args> xmode[2] arreq[1][2] </args>
      <args> xmode[3] arreq[1][3] </args>
      <args> xmode[4] arreq[1][4] </args>
      <args> xmode[5] arreq[1][5] </args>
      <args> xmode[6] arreq[1][6] </args>
      <args> xmode[7] arreq[1][7] </args>
      <args> xmode[8] arreq[1][8] </args>
      <args> xmode[9] arreq[1][9] </args>
      <args> xmode[10] arreq[1][10] </args>
      <args> xmode[11] arreq[1][11] </args>
      <args> xmode[12] arreq[1][12] </args>
      <args> xmode[13] arreq[1][13] </args>
      <args> xmode[14] arreq[1][14] </args>
      <args> xmode[15] arreq[1][15] </args>
      <args> xmode[16] arreq[1][16] </args>
      <args> xmode[17] arreq[1][17] </args>
      <args> xmode[18] arreq[1][18] </args>
      <args> xmode[19] arreq[1][19] </args>
      <args> xmode[20] arreq[1][20] </args>
      <args> xmode[21] arreq[1][21] </args>
      <args> xmode[22] arreq[1][22] </args>
      <args> xmode[23] arreq[1][23] </args>
      <args> xmode[24] arreq[1][24] </args>
      <args> xmode[25] arreq[1][25] </args>
      <args> xmode[26] arreq[1][26] </args>
      <args> xmode[27] arreq[1][27] </args>
      <args> xmode[28] arreq[1][28] </args>
      <args> xmode[29] arreq[1][29] </args>
    </group>
    <group>
      <element>
        <list> 0 0 6 0 6 0 4 0 3 0 6 3 0 0 0 0 0 9 3 2 0 0 4 4 5 0 0 0 4 0 10 10 0 9 3 0 9 0 0 4 2 0 1 1 1 4 0 4 9 9 6 7 0 0 8 0 0 0 6 5 0 5 0 0 2 0 6 4 4 7 0 2 5 0 0 0 0 4 2 0 0 5 3 0 0 0 3 0 0 4 </list>
        <index> %0 </index>
        <value> %1 </value>
      </element>
      <args> xmode[0] arreq[2][0] </args>
      <args> xmode[1] arreq[2][1] </args>
      <args> xmode[2] arreq[2][2] </args>
      <args> xmode[3] arreq[2][3] </args>
      <args> xmode[4] arreq[2][4] </args>
      <args> xmode[5] arreq[2][5] </args>
      <args> xmode[6] arreq[2][6] </args>
      <args> xmode[7] arreq[2][7] </args>
      <args> xmode[8] arreq[2][8] </args>
      <args> xmode[9] arreq[2][9] </args>
      <args> xmode[10] arreq[2][10] </args>
      <args> xmode[11] arreq[2][11] </args>
      <args> xmode[12] arreq[2][12] </args>
      <args> xmode[13] arreq[2][13] </args>
      <args> xmode[14] arreq[2][14] </args>
      <args> xmode[15] arreq[2][15] </args>
      <args> xmode[16] arreq[2][16] </args>
      <args> xmode[17] arreq[2][17] </args>
      <args> xmode[18] arreq[2][18] </args>
      <args> xmode[19] arreq[2][19] </args>
      <args> xmode[20] arreq[2][20] </args>
      <args> xmode[21] arreq[2][21] </args>
      <args> xmode[22] arreq[2][22] </args>
      <args> xmode[23] arreq[2][23] </args>
      <args> xmode[24] arreq[2][24] </args>
      <args> xmode[25] arreq[2][25] </args>
      <args> xmode[26] arreq[2][26] </args>
      <args> xmode[27] arreq[2][27] </args>
      <args> xmode[28] arreq[2][28] </args>
      <args> xmode[29] arreq[2][29] </args>
    </group>
    <group>
      <element>
        <list> 10 9 0 8 0 8 0 7 0 5 0 0 7 6 6 7 6 0 0 0 5 5 0 0 0 6 6 6 0 2 0 0 8 0 0 3 0 8 7 0 0 6 0 0 0 0 6 0 0 0 0 0 7 7 0 2 1 5 0 0 9 0 3 9 0 9 0 0 0 0 4 0 0 4 4 6 3 0 0 8 8 0 0 7 6 5 0 10 9 0 </list>
        <index> %0 </index>
        <value> %1 </value>
      </element>
      <args> xmode[0] arreq[3][0] </args>
      <args> xmode[1] arreq[3][1] </args>
      <args> xmode[2] arreq[3][2] </args>
      <args> xmode[3] arreq[3][3] </args>
      <args> xmode[4] arreq[3][4] </args>
      <args> xmode[5] arreq[3][5] </args>
      <args> xmode[6] arreq[3][6] </args>
      <args> xmode[7] arreq[3][7] </args>
      <args> xmode[8] arreq[3][8] </args>
      <args> xmode[9] arreq[3][9] </args>
      <args> xmode[10] arreq[3][10] </args>
      <args> xmode[11] arreq[3][11] </args>
      <args> xmode[12] arreq[3][12] </args>
      <args> xmode[13] arreq[3][13] </args>
      <args> xmode[14] arreq[3][14] </args>
      <args> xmode[15] arreq[3][15] </args>
      <args> xmode[16] arreq[3][16] </args>
      <args> xmode[17] arreq[3][17] </args>
      <args> xmode[18] arreq[3][18] </args>
      <args> xmode[19] arreq[3][19] </args>
      <args> xmode[20] arreq[3][20] </args>
      <args> xmode[21] arreq[3][21] </args>
      <args> xmode[22] arreq[3][22] </args>
      <args> xmode[23] arreq[3][23] </args>
      <args> xmode[24] arreq[3][24] </args>
      <args> xmode[25] arreq[3][25] </args>
      <args> xmode[26] arreq[3][26] </args>
      <args> xmode[27] arreq[3][27] </args>
      <args> xmode[28] arreq[3][28] </args>
      <args> xmode[29] arreq[3][29] </args>
    </group>
    <group note="handling precedences">
      <intension> le(add(%0,%1),%2) </intension>
      <args> start[0] adur[0] start[13] </args>
      <args> start[0] adur[0] start[24] </args>
      <args> start[1] adur[1] start[4] </args>
      <args> start[1] adur[1] start[11] </args>
      <args> start[1] adur[1] start[23] </args>
      <args> start[2] adur[2] start[3] </args>
      <args> start[2] adur[2] start[5] </args>
      <args> start[2] adur[2] start[6] </args>
      <args> start[3] adur[3] start[24] </args>
      <args> start[4] adur[4] start[7] </args>
      <args> start[4] adur[4] start[8] </args>
      <args> start[5] adur[5] start[8] </args>
      <args> start[5] adur[5] start[10] </args>
      <args> start[5] adur[5] start[13] </args>
      <args> start[6] adur[6] start[9] </args>
      <args> start[6] adur[6] start[10] </args>
      <args> start[6] adur[6] start[12] </args>
      <args> start[7] adur[7] start[19] </args>
      <args> start[7] adur[7] start[21] </args>
      <args> start[7] adur[7] start[22] </args>
      <args> start[8] adur[8] start[20] </args>
      <args> start[9] adur[9] start[28] </args>
      <args> start[10] adur[10] start[15] </args>
      <args> start[10] adur[10] start[23] </args>
      <args> start[11] adur[11] start[18] </args>
      <args> start[11] adur[11] start[25] </args>
      <args> start[12] adur[12] start[16] </args>
      <args> start[12] adur[12] start[23] </args>
      <args> start[12] adur[12] start[24] </args>
      <args> start[13] adur[13] start[14] </args>
      <args> start[13] adur[13] start[15] </args>
      <args> start[14] adur[14] start[20] </args>
      <args> start[15] adur[15] start[17] </args>
      <args> start[15] adur[15] start[19] </args>
      <args> start[15] adur[15] start[29] </args>
      <args> start[16] adur[16] start[17] </args>
      <args> start[16] adur[16] start[18] </args>
      <args> start[16] adur[16] start[25] </args>
      <args> start[17] adur[17] start[27] </args>
      <args> start[18] adur[18] start[19] </args>
      <args> start[18] adur[18] start[22] </args>
      <args> start[19] adur[19] start[28] </args>
      <args> start[20] adur[20] start[21] </args>
      <args> start[20] adur[20] start[22] </args>
      <args> start[20] adur[20] start[25] </args>
      <args> start[21] adur[21] start[28] </args>
      <args> start[21] adur[21] start[29] </args>
      <args> start[22] adur[22] start[27] </args>
      <args> start[23] adur[23] start[26] </args>
      <args> start[24] adur[24] start[27] </args>
      <args> start[25] adur[25] start[26] </args>
      <args> start[26] adur[26] start[29] </args>
    </group>
    <group note="handling renewable resources">
      <cumulative>
        <origins> start[] </origins>
        <lengths> adur[] </lengths>
        <heights> %... </heights>
        <condition> (le,%0) </condition>
      </cumulative>
      <args> 24 arreq[0][] </args>
      <args> 26 arreq[1][] </args>
    </group>
    <group note="handling non-renewable resources">
      <sum>
        <list> %... </list>
        <condition> (le,%0) </condition>
      </sum>
      <args> 84 arreq[2][] </args>
      <args> 90 arreq[3][] </args>
    </group>
  </constraints>
  <objectives>
    <minimize type="maximum"> add(start[27],adur[27]) add(start[28],adur[28]) add(start[29],adur[29]) </minimize>
  </objectives>
</instance>
